QPLIB_2698
LCQ
minimize
196 # number of variables
47 # number of constraints
0.0 # default value for linear coefficients in objective
10 # number of non-default linear coefficients in objective
1 1.0
2 1.0
3 1.0
4 1.0
5 1.0
6 1.0
7 1.0
8 1.0
9 1.0
10 1.0
0.0 # objective constant
120 # number of quadratic terms in all constraints
37 1651076121 1 -2.0
37 1651076121 1 2.0
37 1651076121 1 2.0
37 1651076121 1 2.0
37 1651076121 1 2.0
37 1651076121 1 2.0
37 1651076121 1 2.0
37 1651076121 1 2.0
37 1651076121 1 2.0
37 1651076121 1 2.0
37 1651076121 1 2.0
38 1668834403 1072693249 -2.0
38 1668834403 1072693249 2.0
38 1668834403 1072693249 2.0
38 1668834403 1072693249 2.0
38 1668834403 1072693249 2.0
38 1668834403 1072693249 2.0
38 1668834403 1072693249 2.0
38 1668834403 1072693249 2.0
38 1668834403 1072693249 2.0
38 1668834403 1072693249 2.0
38 1668834403 1072693249 2.0
39 1651076196 114 -2.0
39 1651076196 114 2.0
39 1651076196 114 2.0
39 1651076196 114 2.0
39 1651076196 114 2.0
39 1651076196 114 2.0
39 1651076196 114 2.0
39 1651076196 114 2.0
39 1651076196 114 2.0
39 1651076196 114 2.0
39 1651076196 114 2.0
40 1932407863 1 -2.0
40 1932407863 1 2.0
40 1932407863 1 2.0
40 1932407863 1 2.0
40 1932407863 1 2.0
40 1932407863 1 2.0
40 1932407863 1 2.0
40 1932407863 1 2.0
40 1932407863 1 2.0
40 1932407863 1 2.0
40 1932407863 1 2.0
41 1684152432 1028059745 -2.0
41 1684152432 1028059745 2.0
41 1684152432 1028059745 2.0
41 1684152432 1028059745 2.0
41 1684152432 1028059745 2.0
41 1684152432 1028059745 2.0
41 1684152432 1028059745 2.0
41 1684152432 1028059745 2.0
41 1684152432 1028059745 2.0
41 1684152432 1028059745 2.0
41 1684152432 1028059745 2.0
42 540156025 32622 -2.0
42 540156025 32622 2.0
42 540156025 32622 2.0
42 540156025 32622 2.0
42 540156025 32622 2.0
42 540156025 32622 2.0
42 540156025 32622 2.0
42 540156025 32622 2.0
42 540156025 32622 2.0
42 540156025 32622 2.0
42 540156025 32622 2.0
43 540094769 1 -2.0
43 540094769 1 2.0
43 540094769 1 2.0
43 540094769 1 2.0
43 540094769 1 2.0
43 540094769 1 2.0
43 540094769 1 2.0
43 540094769 1 2.0
43 540094769 1 2.0
43 540094769 1 2.0
43 540094769 1 2.0
44 540090417 1 -2.0
44 540090417 1 2.0
44 540090417 1 2.0
44 540090417 1 2.0
44 540090417 1 2.0
44 540090417 1 2.0
44 540090417 1 2.0
44 540090417 1 2.0
44 540090417 1 2.0
44 540090417 1 2.0
44 540090417 1 2.0
45 540024881 1 -2.0
45 540024881 1 2.0
45 540024881 1 2.0
45 540024881 1 2.0
45 540024881 1 2.0
45 540024881 1 2.0
45 540024881 1 2.0
45 540024881 1 2.0
45 540024881 1 2.0
45 540024881 1 2.0
45 540024881 1 2.0
46 540090417 1 -2.0
46 540090417 1 2.0
46 540090417 1 2.0
46 540090417 1 2.0
46 540090417 1 2.0
46 540090417 1 2.0
46 540090417 1 2.0
46 540090417 1 2.0
46 540090417 1 2.0
46 540090417 1 2.0
46 540090417 1 2.0
47 50 1 2.0
47 50 1 2.0
47 50 1 2.0
47 50 1 2.0
47 50 1 2.0
47 50 1 2.0
47 50 1 2.0
47 50 1 2.0
47 50 1 2.0
47 50 1 2.0
427 # number of linear terms in all constraints
1 11 -1.0
1 12 -1.0
1 13 -1.0
1 14 -1.0
1 15 -1.0
1 16 -1.0
1 17 -1.0
1 18 -1.0
1 19 -1.0
1 20 -1.0
1 21 -1.0
2 22 -1.0
2 23 -1.0
2 24 -1.0
2 25 -1.0
2 26 -1.0
2 27 -1.0
2 28 -1.0
2 29 -1.0
2 30 -1.0
2 31 -1.0
2 32 -1.0
3 33 -1.0
3 34 -1.0
3 35 -1.0
3 36 -1.0
3 37 -1.0
3 38 -1.0
3 39 -1.0
3 40 -1.0
3 41 -1.0
3 42 -1.0
3 43 -1.0
4 44 -1.0
4 45 -1.0
4 46 -1.0
4 47 -1.0
4 48 -1.0
4 49 -1.0
4 50 -1.0
4 51 -1.0
4 52 -1.0
4 53 -1.0
4 54 -1.0
5 55 -1.0
5 56 -1.0
5 57 -1.0
5 58 -1.0
5 59 -1.0
5 60 -1.0
5 61 -1.0
5 62 -1.0
5 63 -1.0
5 64 -1.0
5 65 -1.0
6 1 1.0
6 12 -1.0
6 23 -1.0
6 34 -1.0
6 45 -1.0
6 56 -1.0
6 66 -1.0
6 67 -1.0
6 68 -1.0
6 69 -1.0
6 70 -1.0
6 71 -1.0
6 72 -1.0
6 73 -1.0
6 74 -1.0
6 75 -1.0
7 2 1.0
7 13 -1.0
7 24 -1.0
7 35 -1.0
7 46 -1.0
7 57 -1.0
7 76 -1.0
7 77 -1.0
7 78 -1.0
7 79 -1.0
7 80 -1.0
7 81 -1.0
7 82 -1.0
7 83 -1.0
7 84 -1.0
7 85 -1.0
8 3 1.0
8 14 -1.0
8 25 -1.0
8 36 -1.0
8 47 -1.0
8 58 -1.0
8 86 -1.0
8 87 -1.0
8 88 -1.0
8 89 -1.0
8 90 -1.0
8 91 -1.0
8 92 -1.0
8 93 -1.0
8 94 -1.0
8 95 -1.0
9 4 1.0
9 15 -1.0
9 26 -1.0
9 37 -1.0
9 48 -1.0
9 59 -1.0
9 96 -1.0
9 97 -1.0
9 98 -1.0
9 99 -1.0
9 100 -1.0
9 101 -1.0
9 102 -1.0
9 103 -1.0
9 104 -1.0
9 105 -1.0
10 5 1.0
10 16 -1.0
10 27 -1.0
10 38 -1.0
10 49 -1.0
10 60 -1.0
10 106 -1.0
10 107 -1.0
10 108 -1.0
10 109 -1.0
10 110 -1.0
10 111 -1.0
10 112 -1.0
10 113 -1.0
10 114 -1.0
10 115 -1.0
11 6 1.0
11 17 -1.0
11 28 -1.0
11 39 -1.0
11 50 -1.0
11 61 -1.0
11 116 -1.0
11 117 -1.0
11 118 -1.0
11 119 -1.0
11 120 -1.0
11 121 -1.0
11 122 -1.0
11 123 -1.0
11 124 -1.0
11 125 -1.0
12 7 1.0
12 18 -1.0
12 29 -1.0
12 40 -1.0
12 51 -1.0
12 62 -1.0
12 126 -1.0
12 127 -1.0
12 128 -1.0
12 129 -1.0
12 130 -1.0
12 131 -1.0
12 132 -1.0
12 133 -1.0
12 134 -1.0
12 135 -1.0
13 8 1.0
13 19 -1.0
13 30 -1.0
13 41 -1.0
13 52 -1.0
13 63 -1.0
13 136 -1.0
13 137 -1.0
13 138 -1.0
13 139 -1.0
13 140 -1.0
13 141 -1.0
13 142 -1.0
13 143 -1.0
13 144 -1.0
13 145 -1.0
14 9 1.0
14 20 -1.0
14 31 -1.0
14 42 -1.0
14 53 -1.0
14 64 -1.0
14 146 -1.0
14 147 -1.0
14 148 -1.0
14 149 -1.0
14 150 -1.0
14 151 -1.0
14 152 -1.0
14 153 -1.0
14 154 -1.0
14 155 -1.0
15 10 1.0
15 21 -1.0
15 32 -1.0
15 43 -1.0
15 54 -1.0
15 65 -1.0
15 156 -1.0
15 157 -1.0
15 158 -1.0
15 159 -1.0
15 160 -1.0
15 161 -1.0
15 162 -1.0
15 163 -1.0
15 164 -1.0
15 165 -1.0
16 1 1.0
16 66 -1.0
16 76 -1.0
16 86 -1.0
16 96 -1.0
16 106 -1.0
16 116 -1.0
16 126 -1.0
16 136 -1.0
16 146 -1.0
16 156 -1.0
16 166 -1.0
17 2 1.0
17 67 -1.0
17 77 -1.0
17 87 -1.0
17 97 -1.0
17 107 -1.0
17 117 -1.0
17 127 -1.0
17 137 -1.0
17 147 -1.0
17 157 -1.0
17 167 -1.0
18 3 1.0
18 68 -1.0
18 78 -1.0
18 88 -1.0
18 98 -1.0
18 108 -1.0
18 118 -1.0
18 128 -1.0
18 138 -1.0
18 148 -1.0
18 158 -1.0
18 168 -1.0
19 4 1.0
19 69 -1.0
19 79 -1.0
19 89 -1.0
19 99 -1.0
19 109 -1.0
19 119 -1.0
19 129 -1.0
19 139 -1.0
19 149 -1.0
19 159 -1.0
19 169 -1.0
20 5 1.0
20 70 -1.0
20 80 -1.0
20 90 -1.0
20 100 -1.0
20 110 -1.0
20 120 -1.0
20 130 -1.0
20 140 -1.0
20 150 -1.0
20 160 -1.0
20 170 -1.0
21 6 1.0
21 71 -1.0
21 81 -1.0
21 91 -1.0
21 101 -1.0
21 111 -1.0
21 121 -1.0
21 131 -1.0
21 141 -1.0
21 151 -1.0
21 161 -1.0
21 171 -1.0
22 7 1.0
22 72 -1.0
22 82 -1.0
22 92 -1.0
22 102 -1.0
22 112 -1.0
22 122 -1.0
22 132 -1.0
22 142 -1.0
22 152 -1.0
22 162 -1.0
22 172 -1.0
23 8 1.0
23 73 -1.0
23 83 -1.0
23 93 -1.0
23 103 -1.0
23 113 -1.0
23 123 -1.0
23 133 -1.0
23 143 -1.0
23 153 -1.0
23 163 -1.0
23 173 -1.0
24 9 1.0
24 74 -1.0
24 84 -1.0
24 94 -1.0
24 104 -1.0
24 114 -1.0
24 124 -1.0
24 134 -1.0
24 144 -1.0
24 154 -1.0
24 164 -1.0
24 174 -1.0
25 10 1.0
25 75 -1.0
25 85 -1.0
25 95 -1.0
25 105 -1.0
25 115 -1.0
25 125 -1.0
25 135 -1.0
25 145 -1.0
25 155 -1.0
25 165 -1.0
25 175 -1.0
26 11 -1.0
26 22 -1.0
26 33 -1.0
26 44 -1.0
26 55 -1.0
26 166 -1.0
26 167 -1.0
26 168 -1.0
26 169 -1.0
26 170 -1.0
26 171 -1.0
26 172 -1.0
26 173 -1.0
26 174 -1.0
26 175 -1.0
26 176 1.0
27 177 -0.05
27 178 1.0
28 179 -0.2
28 180 1.0
29 181 -0.15
29 182 1.0
30 183 -0.88
30 184 1.0
31 185 -0.7
31 186 1.0
32 187 -0.4
32 188 1.0
33 189 -0.33
33 190 1.0
34 191 -0.3
34 192 1.0
35 193 -0.4
35 194 1.0
36 195 -0.3
36 196 1.0
37 12 330.0
37 23 50.0
37 34 150.0
37 45 240.0
37 56 120.0
38 13 330.0
38 24 50.0
38 35 150.0
38 46 240.0
38 57 120.0
39 14 330.0
39 25 50.0
39 36 150.0
39 47 240.0
39 58 120.0
40 15 330.0
40 26 50.0
40 37 150.0
40 48 240.0
40 59 120.0
41 16 330.0
41 27 50.0
41 38 150.0
41 49 240.0
41 60 120.0
42 17 330.0
42 28 50.0
42 39 150.0
42 50 240.0
42 61 120.0
43 18 330.0
43 29 50.0
43 40 150.0
43 51 240.0
43 62 120.0
44 19 330.0
44 30 50.0
44 41 150.0
44 52 240.0
44 63 120.0
45 20 330.0
45 31 50.0
45 42 150.0
45 53 240.0
45 64 120.0
46 21 330.0
46 32 50.0
46 43 150.0
46 54 240.0
46 65 120.0
47 11 330.0
47 22 50.0
47 33 150.0
47 44 240.0
47 55 120.0
47 176 -10.0
1.79769313486232E+308 # value for infinity
0.0 # default left-hand-side value
6 # number of non-default left-hand-sides
1 -90.0
2 -350.0
3 -200.0
4 -40.0
5 -130.0
47 -1.79769313486232E+308
0.0 # default right-hand-side value
5 # number of non-default right-hand-sides
1 -90.0
2 -350.0
3 -200.0
4 -40.0
5 -130.0
0.0 # default variable lower bound value
0 # number of non-default variable lower bounds
1000000.0 # default variable upper bound value
10 # number of non-default variable upper bounds
177 30.0
179 100.0
181 50.0
183 227.0
185 100.0
187 300.0
189 12.0
191 970.0
193 20.0
195 250.0
0.0 # default variable primal value in starting point
0 # number of non-default variable primal values in starting point
0.0 # default constraint dual value in starting point
0 # number of non-default constraint dual values in starting point
0.0 # default variable bound dual value in starting point
0 # number of non-default variable bound dual values in starting point
0 # number of non-default variable names
0 # number of non-default constraint names
